p cnf 100 150
1 95 0
1 41 0
1 33 0
2 35 0
2 89 0
2 19 0
3 61 0
3 56 0
3 18 0
4 39 0
4 64 0
4 28 0
5 87 0
5 24 0
5 96 0
6 68 0
6 75 0
6 25 0
7 87 0
7 81 0
7 91 0
8 57 0
8 30 0
8 48 0
9 74 0
9 82 0
9 46 0
10 84 0
10 27 0
10 43 0
11 100 0
11 14 0
11 79 0
12 13 0
12 51 0
12 68 0
13 93 0
13 44 0
14 94 0
14 98 0
15 44 0
15 23 0
15 86 0
16 36 0
16 97 0
16 34 0
17 34 0
17 76 0
17 68 0
18 100 0
18 41 0
19 40 0
19 38 0
20 35 0
20 73 0
20 65 0
21 52 0
21 92 0
21 88 0
22 40 0
22 49 0
22 77 0
23 74 0
23 42 0
24 100 0
24 97 0
25 89 0
25 70 0
26 86 0
26 52 0
26 55 0
27 57 0
27 87 0
28 58 0
28 85 0
29 92 0
29 91 0
29 60 0
30 90 0
30 70 0
31 46 0
31 65 0
31 67 0
32 38 0
32 37 0
32 47 0
33 50 0
33 51 0
34 76 0
35 72 0
36 91 0
36 45 0
37 42 0
37 99 0
38 72 0
39 80 0
39 59 0
40 73 0
41 85 0
42 59 0
43 57 0
43 72 0
44 55 0
45 63 0
45 84 0
46 80 0
47 94 0
47 66 0
48 52 0
48 98 0
49 81 0
49 67 0
50 84 0
50 76 0
51 58 0
53 62 0
53 99 0
53 61 0
54 65 0
54 56 0
54 93 0
55 69 0
56 71 0
58 92 0
59 62 0
60 71 0
60 61 0
62 78 0
63 71 0
63 90 0
64 80 0
64 82 0
66 70 0
66 85 0
67 82 0
69 97 0
69 79 0
73 98 0
74 77 0
75 90 0
75 83 0
77 93 0
78 88 0
78 83 0
79 81 0
83 94 0
86 95 0
88 99 0
89 96 0
95 96 0
g -61